(declare-const n Int)
(declare-const sn Int)
(declare-const |sn'| Int)
(declare-const phi_sn Int)
(declare-const term_to_project_onto Real)
(declare-const term_to_project_onto0 Real)
(declare-const |i'| Int)
(declare-const |j'| Int)
(declare-const term_to_project_onto1 Real)
(declare-const j Int)
(declare-const i Int)
(assert (and (<= (- sn) 0) (<= (+ (- i) 1) 0) (<= (- n) 0)
               (= (+ (- j) (- i) 11) 0) (<= (+ (- n) i) 0)
               (or (and (<= (+ j (- i)) 0) (= (+ (- phi_sn) sn) 0))
                     (and (<= (+ (- j) i 1) 0) (= (+ (- phi_sn) sn 2) 0)))
               (= (+ |sn'| (- phi_sn)) 0) (= (+ |j'| (- j) 1) 0)
               (= (+ |i'| (- i) -1) 0)
               (= term_to_project_onto1 (+ |i'| (- i)))
               (= term_to_project_onto0 (+ |j'| (- j)))
               (= term_to_project_onto (+ |sn'| (- sn)))))
(check-sat)
